(set-info :smt-lib-version 2.6)
(set-logic UFNIA)
(set-info :source |
Generated by: Geoff Sutcliffe
Generated on: 2026-03-11
Generator: TPTPWorld
Application: Benchmarking automated theorem provers
Time limit: 120.0

These benchmarks are translations from the TPTP Library (Thousands of
Problems for Theorem Provers), see http://www.cs.miami.edu/~tptp/

The TPTP is maintained by Geoff Sutcliffe, and he contributed this
selection of benchmarks to SMT-LIB.  They were exported from the
v9.2.1 realease of TPTP.
|)
(set-info :category "industrial")
(set-info :status "unknown")
; SZS status Success
(declare-sort $$unsorted 0)

(declare-sort tptp.general 0)
(declare-sort tptp.symbol 0)
(declare-fun tptp.f__integer__ (Int) tptp.general)
(declare-fun tptp.f__symbolic__ (tptp.symbol) tptp.general)
(declare-fun tptp.c__infimum__ () tptp.general)
(declare-fun tptp.c__supremum__ () tptp.general)
(declare-fun tptp.p__is_integer__ (tptp.general) Bool)
(declare-fun tptp.p__is_symbolic__ (tptp.general) Bool)
(declare-fun tptp.p__less_equal__ (tptp.general tptp.general) Bool)
(declare-fun tptp.p__less__ (tptp.general tptp.general) Bool)
(declare-fun tptp.p__greater_equal__ (tptp.general tptp.general) Bool)
(declare-fun tptp.p__greater__ (tptp.general tptp.general) Bool)
(assert (forall ((X tptp.general)) (= (tptp.p__is_integer__ X) (exists ((N Int)) (= X (tptp.f__integer__ N))))))
(assert (forall ((X1 tptp.general)) (= (tptp.p__is_symbolic__ X1) (exists ((X2 tptp.symbol)) (= X1 (tptp.f__symbolic__ X2))))))
(assert (forall ((X tptp.general)) (or (= X tptp.c__infimum__) (tptp.p__is_integer__ X) (tptp.p__is_symbolic__ X) (= X tptp.c__supremum__))))
(assert (forall ((N1 Int) (N2 Int)) (= (= (tptp.f__integer__ N1) (tptp.f__integer__ N2)) (= N1 N2))))
(assert (forall ((S1 tptp.symbol) (S2 tptp.symbol)) (= (= (tptp.f__symbolic__ S1) (tptp.f__symbolic__ S2)) (= S1 S2))))
(assert (forall ((N1 Int) (N2 Int)) (= (tptp.p__less_equal__ (tptp.f__integer__ N1) (tptp.f__integer__ N2)) (<= N1 N2))))
(assert (forall ((X1 tptp.general) (X2 tptp.general)) (=> (and (tptp.p__less_equal__ X1 X2) (tptp.p__less_equal__ X2 X1)) (= X1 X2))))
(assert (forall ((X1 tptp.general) (X2 tptp.general) (X3 tptp.general)) (=> (and (tptp.p__less_equal__ X1 X2) (tptp.p__less_equal__ X2 X3)) (tptp.p__less_equal__ X1 X3))))
(assert (forall ((X1 tptp.general) (X2 tptp.general)) (or (tptp.p__less_equal__ X1 X2) (tptp.p__less_equal__ X2 X1))))
(assert (forall ((X1 tptp.general) (X2 tptp.general)) (= (tptp.p__less__ X1 X2) (and (tptp.p__less_equal__ X1 X2) (not (= X1 X2))))))
(assert (forall ((X1 tptp.general) (X2 tptp.general)) (= (tptp.p__greater_equal__ X1 X2) (tptp.p__less_equal__ X2 X1))))
(assert (forall ((X1 tptp.general) (X2 tptp.general)) (= (tptp.p__greater__ X1 X2) (and (tptp.p__less_equal__ X2 X1) (not (= X1 X2))))))
(assert (forall ((N Int)) (tptp.p__less__ tptp.c__infimum__ (tptp.f__integer__ N))))
(assert (forall ((N Int) (S tptp.symbol)) (tptp.p__less__ (tptp.f__integer__ N) (tptp.f__symbolic__ S))))
(assert (forall ((S tptp.symbol)) (tptp.p__less__ (tptp.f__symbolic__ S) tptp.c__supremum__)))
(declare-fun tptp.div (tptp.general tptp.general tptp.general tptp.general) Bool)
(assert (forall ((V1_g tptp.general) (V2_g tptp.general) (V3_g tptp.general) (V4_g tptp.general)) (= (tptp.div V1_g V2_g V3_g V4_g) (exists ((N_g tptp.general) (D_g tptp.general) (Q_g tptp.general) (R_g tptp.general)) (and (= V1_g N_g) (= V2_g D_g) (= V3_g Q_g) (= V4_g R_g) (exists ((Z_g tptp.general) (Z1_g tptp.general)) (and (= Z_g N_g) (exists ((I_i Int) (J_i Int)) (and (= Z1_g (tptp.f__integer__ (+ I_i J_i))) (exists ((I1_i Int) (J_i Int)) (and (= I_i (* I1_i J_i)) (= (tptp.f__integer__ I1_i) D_g) (= (tptp.f__integer__ J_i) Q_g))) (= (tptp.f__integer__ J_i) R_g))) (= Z_g Z1_g))) (exists ((Z_g tptp.general) (Z1_g tptp.general)) (and (= Z_g (tptp.f__integer__ 0)) (= Z1_g R_g) (tptp.p__less_equal__ Z_g Z1_g))) (exists ((Z_g tptp.general) (Z1_g tptp.general)) (and (= Z_g R_g) (= Z1_g D_g) (tptp.p__less__ Z_g Z1_g))))))))
(assert (forall ((N_i Int) (D_i Int) (Q_i Int) (R_i Int)) (let ((_let_1 (tptp.f__integer__ Q_i))) (let ((_let_2 (tptp.f__integer__ D_i))) (=> (and (tptp.div (tptp.f__integer__ N_i) _let_2 _let_1 (tptp.f__integer__ R_i)) (< R_i (- D_i 1))) (tptp.div (tptp.f__integer__ (+ N_i 1)) _let_2 _let_1 (tptp.f__integer__ (+ R_i 1))))))))
(assert (not (forall ((N_i Int) (D_i Int) (Q_i Int)) (let ((_let_1 (tptp.f__integer__ D_i))) (=> (tptp.div (tptp.f__integer__ N_i) _let_1 (tptp.f__integer__ Q_i) (tptp.f__integer__ (- D_i 1))) (tptp.div (tptp.f__integer__ (+ N_i 1)) _let_1 (tptp.f__integer__ (+ Q_i 1)) (tptp.f__integer__ 0)))))))
(check-sat)
(exit)
